Minimize
  15 x_milk_chocolate + 12 x_dark_chocolate_bars
Subject To
  c1: 4 x_milk_chocolate + 6 x_dark_chocolate_bars <= 2000
  c2: 7 x_milk_chocolate + 3 x_dark_chocolate_bars <= 1750
  c3: x_milk_chocolate - 2.0 x_dark_chocolate_bars >= 0
Integer
  x_milk_chocolate x_dark_chocolate_bars
End